0 3092
3 3058
6 3052
11 3009
14 2997
16 2990
27 2977
30 2974
38 2936
44 2931
51 2920
61 2914
78 2908
80 2899
93 2887
106 2877
194 2843
200 2837
245 2822
250 2814
304 2788
306 2783
319 2780
338 2778
351 2767
482 2765
2175 2752
